p cnf 126 431
1 2 0
-1 -2 0
13 14 0
-13 -14 0
25 26 0
-25 -26 0
37 38 0
-37 -38 0
49 50 0
-49 -50 0
3 4 0
-3 -4 0
15 16 0
-15 -16 0
27 28 0
-27 -28 0
39 40 0
-39 -40 0
51 52 0
-51 -52 0
5 6 0
-5 -6 0
17 18 0
-17 -18 0
29 30 0
-29 -30 0
41 42 0
-41 -42 0
53 54 0
-53 -54 0
7 8 0
-7 -8 0
19 20 0
-19 -20 0
31 32 0
-31 -32 0
43 44 0
-43 -44 0
55 56 0
-55 -56 0
9 10 0
-9 -10 0
21 22 0
-21 -22 0
33 34 0
-33 -34 0
45 46 0
-45 -46 0
57 58 0
-57 -58 0
11 12 0
-11 -12 0
23 24 0
-23 -24 0
35 36 0
-35 -36 0
47 48 0
-47 -48 0
59 60 0
-59 -60 0
-1 -13 -25 -37 -49 4 0
-1 -14 -25 -37 -49 4 0
-1 -13 -26 -37 -49 4 0
-1 -14 -26 -37 -49 4 0
-1 -13 -25 -38 -49 4 0
-1 -14 -25 -38 -49 4 0
-1 -13 -26 -38 -49 4 0
-1 -14 -26 -38 -49 4 0
-1 -13 -25 -37 -50 4 0
-1 -14 -25 -37 -50 4 0
-1 -13 -26 -37 -50 4 0
-1 -14 -26 -37 -50 4 0
-1 -13 -25 -38 -50 4 0
-1 -14 -25 -38 -50 4 0
-1 -13 -26 -38 -50 4 0
-1 -14 -26 -38 -50 4 0
-2 -13 -25 -37 -49 4 0
-2 -14 -25 -37 -49 4 0
-2 -13 -26 -37 -49 4 0
-2 -14 -26 -37 -49 4 0
-2 -13 -25 -38 -49 4 0
-2 -14 -25 -38 -49 4 0
-2 -13 -26 -38 -49 4 0
-2 -14 -26 -38 -49 4 0
-2 -13 -25 -37 -50 4 0
-2 -14 -25 -37 -50 4 0
-2 -13 -26 -37 -50 4 0
-2 -14 -26 -37 -50 4 0
-2 -13 -25 -38 -50 4 0
-2 -14 -25 -38 -50 4 0
-2 -13 -26 -38 -50 4 0
-2 -14 -26 -38 -50 3 0
-13 -1 16 0
-13 -2 16 0
-14 -1 16 0
-14 -2 15 0
-25 -1 28 0
-25 -2 28 0
-26 -1 28 0
-26 -2 27 0
-37 -1 40 0
-37 -2 40 0
-38 -1 40 0
-38 -2 39 0
-49 -1 52 0
-49 -2 52 0
-50 -1 52 0
-50 -2 51 0
-3 -15 -27 -39 -51 6 0
-3 -16 -27 -39 -51 6 0
-3 -15 -28 -39 -51 6 0
-3 -16 -28 -39 -51 6 0
-3 -15 -27 -40 -51 6 0
-3 -16 -27 -40 -51 6 0
-3 -15 -28 -40 -51 6 0
-3 -16 -28 -40 -51 6 0
-3 -15 -27 -39 -52 6 0
-3 -16 -27 -39 -52 6 0
-3 -15 -28 -39 -52 6 0
-3 -16 -28 -39 -52 6 0
-3 -15 -27 -40 -52 6 0
-3 -16 -27 -40 -52 6 0
-3 -15 -28 -40 -52 6 0
-3 -16 -28 -40 -52 6 0
-4 -15 -27 -39 -51 6 0
-4 -16 -27 -39 -51 6 0
-4 -15 -28 -39 -51 6 0
-4 -16 -28 -39 -51 6 0
-4 -15 -27 -40 -51 6 0
-4 -16 -27 -40 -51 6 0
-4 -15 -28 -40 -51 6 0
-4 -16 -28 -40 -51 6 0
-4 -15 -27 -39 -52 6 0
-4 -16 -27 -39 -52 6 0
-4 -15 -28 -39 -52 6 0
-4 -16 -28 -39 -52 6 0
-4 -15 -27 -40 -52 6 0
-4 -16 -27 -40 -52 6 0
-4 -15 -28 -40 -52 6 0
-4 -16 -28 -40 -52 5 0
-15 -3 18 0
-15 -4 18 0
-16 -3 18 0
-16 -4 17 0
-27 -3 30 0
-27 -4 30 0
-28 -3 30 0
-28 -4 29 0
-39 -3 42 0
-39 -4 42 0
-40 -3 42 0
-40 -4 41 0
-51 -3 54 0
-51 -4 54 0
-52 -3 54 0
-52 -4 53 0
-5 -17 -29 -41 -53 8 0
-5 -18 -29 -41 -53 8 0
-5 -17 -30 -41 -53 8 0
-5 -18 -30 -41 -53 8 0
-5 -17 -29 -42 -53 8 0
-5 -18 -29 -42 -53 8 0
-5 -17 -30 -42 -53 8 0
-5 -18 -30 -42 -53 8 0
-5 -17 -29 -41 -54 8 0
-5 -18 -29 -41 -54 8 0
-5 -17 -30 -41 -54 8 0
-5 -18 -30 -41 -54 8 0
-5 -17 -29 -42 -54 8 0
-5 -18 -29 -42 -54 8 0
-5 -17 -30 -42 -54 8 0
-5 -18 -30 -42 -54 8 0
-6 -17 -29 -41 -53 8 0
-6 -18 -29 -41 -53 8 0
-6 -17 -30 -41 -53 8 0
-6 -18 -30 -41 -53 8 0
-6 -17 -29 -42 -53 8 0
-6 -18 -29 -42 -53 8 0
-6 -17 -30 -42 -53 8 0
-6 -18 -30 -42 -53 8 0
-6 -17 -29 -41 -54 8 0
-6 -18 -29 -41 -54 8 0
-6 -17 -30 -41 -54 8 0
-6 -18 -30 -41 -54 8 0
-6 -17 -29 -42 -54 8 0
-6 -18 -29 -42 -54 8 0
-6 -17 -30 -42 -54 8 0
-6 -18 -30 -42 -54 7 0
-17 -5 20 0
-17 -6 20 0
-18 -5 20 0
-18 -6 19 0
-29 -5 32 0
-29 -6 32 0
-30 -5 32 0
-30 -6 31 0
-41 -5 44 0
-41 -6 44 0
-42 -5 44 0
-42 -6 43 0
-53 -5 56 0
-53 -6 56 0
-54 -5 56 0
-54 -6 55 0
-7 -19 -31 -43 -55 10 0
-7 -20 -31 -43 -55 10 0
-7 -19 -32 -43 -55 10 0
-7 -20 -32 -43 -55 10 0
-7 -19 -31 -44 -55 10 0
-7 -20 -31 -44 -55 10 0
-7 -19 -32 -44 -55 10 0
-7 -20 -32 -44 -55 10 0
-7 -19 -31 -43 -56 10 0
-7 -20 -31 -43 -56 10 0
-7 -19 -32 -43 -56 10 0
-7 -20 -32 -43 -56 10 0
-7 -19 -31 -44 -56 10 0
-7 -20 -31 -44 -56 10 0
-7 -19 -32 -44 -56 10 0
-7 -20 -32 -44 -56 10 0
-8 -19 -31 -43 -55 10 0
-8 -20 -31 -43 -55 10 0
-8 -19 -32 -43 -55 10 0
-8 -20 -32 -43 -55 10 0
-8 -19 -31 -44 -55 10 0
-8 -20 -31 -44 -55 10 0
-8 -19 -32 -44 -55 10 0
-8 -20 -32 -44 -55 10 0
-8 -19 -31 -43 -56 10 0
-8 -20 -31 -43 -56 10 0
-8 -19 -32 -43 -56 10 0
-8 -20 -32 -43 -56 10 0
-8 -19 -31 -44 -56 10 0
-8 -20 -31 -44 -56 10 0
-8 -19 -32 -44 -56 10 0
-8 -20 -32 -44 -56 9 0
-19 -7 22 0
-19 -8 22 0
-20 -7 22 0
-20 -8 21 0
-31 -7 34 0
-31 -8 34 0
-32 -7 34 0
-32 -8 33 0
-43 -7 46 0
-43 -8 46 0
-44 -7 46 0
-44 -8 45 0
-55 -7 58 0
-55 -8 58 0
-56 -7 58 0
-56 -8 57 0
-9 -21 -33 -45 -57 12 0
-9 -22 -33 -45 -57 12 0
-9 -21 -34 -45 -57 12 0
-9 -22 -34 -45 -57 12 0
-9 -21 -33 -46 -57 12 0
-9 -22 -33 -46 -57 12 0
-9 -21 -34 -46 -57 12 0
-9 -22 -34 -46 -57 12 0
-9 -21 -33 -45 -58 12 0
-9 -22 -33 -45 -58 12 0
-9 -21 -34 -45 -58 12 0
-9 -22 -34 -45 -58 12 0
-9 -21 -33 -46 -58 12 0
-9 -22 -33 -46 -58 12 0
-9 -21 -34 -46 -58 12 0
-9 -22 -34 -46 -58 12 0
-10 -21 -33 -45 -57 12 0
-10 -22 -33 -45 -57 12 0
-10 -21 -34 -45 -57 12 0
-10 -22 -34 -45 -57 12 0
-10 -21 -33 -46 -57 12 0
-10 -22 -33 -46 -57 12 0
-10 -21 -34 -46 -57 12 0
-10 -22 -34 -46 -57 12 0
-10 -21 -33 -45 -58 12 0
-10 -22 -33 -45 -58 12 0
-10 -21 -34 -45 -58 12 0
-10 -22 -34 -45 -58 12 0
-10 -21 -33 -46 -58 12 0
-10 -22 -33 -46 -58 12 0
-10 -21 -34 -46 -58 12 0
-10 -22 -34 -46 -58 11 0
-21 -9 24 0
-21 -10 24 0
-22 -9 24 0
-22 -10 23 0
-33 -9 36 0
-33 -10 36 0
-34 -9 36 0
-34 -10 35 0
-45 -9 48 0
-45 -10 48 0
-46 -9 48 0
-46 -10 47 0
-57 -9 60 0
-57 -10 60 0
-58 -9 60 0
-58 -10 59 0
62 63 64 65 66 0
69 70 -62 0
1 -69 0
3 -69 0
2 -70 0
4 -70 0
81 82 -62 0
13 -81 0
15 -81 0
14 -82 0
16 -82 0
93 94 -62 0
25 -93 0
27 -93 0
26 -94 0
28 -94 0
105 106 -62 0
37 -105 0
39 -105 0
38 -106 0
40 -106 0
117 118 -62 0
49 -117 0
51 -117 0
50 -118 0
52 -118 0
71 72 -63 0
1 -71 0
5 -71 0
2 -72 0
6 -72 0
83 84 -63 0
13 -83 0
17 -83 0
14 -84 0
18 -84 0
95 96 -63 0
25 -95 0
29 -95 0
26 -96 0
30 -96 0
107 108 -63 0
37 -107 0
41 -107 0
38 -108 0
42 -108 0
119 120 -63 0
49 -119 0
53 -119 0
50 -120 0
54 -120 0
73 74 -64 0
1 -73 0
7 -73 0
2 -74 0
8 -74 0
85 86 -64 0
13 -85 0
19 -85 0
14 -86 0
20 -86 0
97 98 -64 0
25 -97 0
31 -97 0
26 -98 0
32 -98 0
109 110 -64 0
37 -109 0
43 -109 0
38 -110 0
44 -110 0
121 122 -64 0
49 -121 0
55 -121 0
50 -122 0
56 -122 0
75 76 -65 0
1 -75 0
9 -75 0
2 -76 0
10 -76 0
87 88 -65 0
13 -87 0
21 -87 0
14 -88 0
22 -88 0
99 100 -65 0
25 -99 0
33 -99 0
26 -100 0
34 -100 0
111 112 -65 0
37 -111 0
45 -111 0
38 -112 0
46 -112 0
123 124 -65 0
49 -123 0
57 -123 0
50 -124 0
58 -124 0
77 78 -66 0
1 -77 0
11 -77 0
2 -78 0
12 -78 0
89 90 -66 0
13 -89 0
23 -89 0
14 -90 0
24 -90 0
101 102 -66 0
25 -101 0
35 -101 0
26 -102 0
36 -102 0
113 114 -66 0
37 -113 0
47 -113 0
38 -114 0
48 -114 0
125 126 -66 0
49 -125 0
59 -125 0
50 -126 0
60 -126 0
-1 -13 -25 -37 -49 0
-2 -14 -26 -38 -50 0
-25 -14 0
-37 -14 0
-49 -14 0
